c generated by sgen
p cnf 49 108
-2 -3 -4 0
-1 -3 -4 0
-1 -2 -4 0
-1 -2 -3 0
-6 -7 -8 0
-5 -7 -8 0
-5 -6 -8 0
-5 -6 -7 0
-10 -11 -12 0
-9 -11 -12 0
-9 -10 -12 0
-9 -10 -11 0
-14 -15 -16 0
-13 -15 -16 0
-13 -14 -16 0
-13 -14 -15 0
-18 -19 -20 0
-17 -19 -20 0
-17 -18 -20 0
-17 -18 -19 0
-22 -23 -24 0
-21 -23 -24 0
-21 -22 -24 0
-21 -22 -23 0
-26 -27 -28 0
-25 -27 -28 0
-25 -26 -28 0
-25 -26 -27 0
-30 -31 -32 0
-29 -31 -32 0
-29 -30 -32 0
-29 -30 -31 0
-34 -35 -36 0
-33 -35 -36 0
-33 -34 -36 0
-33 -34 -35 0
-38 -39 -40 0
-37 -39 -40 0
-37 -38 -40 0
-37 -38 -39 0
-42 -43 -44 0
-41 -43 -44 0
-41 -42 -44 0
-41 -42 -43 0
-45 -46 -47 0
-45 -46 -48 0
-45 -46 -49 0
-45 -47 -48 0
-45 -47 -49 0
-45 -48 -49 0
-46 -47 -48 0
-46 -47 -49 0
-46 -48 -49 0
-47 -48 -49 0
24 13 20 0
42 13 20 0
42 24 20 0
42 24 13 0
25 37 17 0
4 37 17 0
4 25 17 0
4 25 37 0
5 19 49 0
35 19 49 0
35 5 49 0
35 5 19 0
16 2 47 0
11 2 47 0
11 16 47 0
11 16 2 0
18 32 38 0
9 32 38 0
9 18 38 0
9 18 32 0
29 6 44 0
1 6 44 0
1 29 44 0
1 29 6 0
39 7 23 0
12 7 23 0
12 39 23 0
12 39 7 0
40 34 45 0
41 34 45 0
41 40 45 0
41 40 34 0
8 48 28 0
15 48 28 0
15 8 28 0
15 8 48 0
10 43 33 0
27 43 33 0
27 10 33 0
27 10 43 0
30 46 3 0
22 46 3 0
22 30 3 0
22 30 46 0
36 31 21 0
36 31 26 0
36 31 14 0
36 21 26 0
36 21 14 0
36 26 14 0
31 21 26 0
31 21 14 0
31 26 14 0
21 26 14 0
